107 113 98 198 46 90 164 172 182 168 77 11 130 51 110 19 151 174 135 22 24 70 156 9 69 109 56 114 150 101 161 192 30 116 21 55 136 7 177 5 122 188 58 72 0 76 104 149 99 85 170 47 42 184 23 31 111 117 165 86 62 20 88 140 196 138 191 132 4 195 124 96 133 78 180 105 59 166 146 134 15 82 29 49 66 13 71 129 10 102 126 119 115 94 45 137 43 148 186 121 160 52 103 84 123 8 26 79 3 187 39 64 38 32 125 1 28 27 181 183 193 128 35 18 34 17 40 81 197 144 16 36 120 25 106 12 176 65 89 112 95 44 185 141 41 178 80 67 2 83 131 169 175 57 157 163 154 74 127 53 108 87 100 139 63 189 142 60 158 97 93 190 91 152 54 143 155 68 75 6 179 199 145 50 73 167 173 171 153 147 61 159 194 162 92 33 37 118 48 14 

